p wcnf 119 60 61 
1 -17 -79 0 
1 -30 82 0 
1 3 -99 0 
1 -87 105 0 
1 78 -79 0 
1 2 -50 0 
1 -101 17 0 
1 18 -23 0 
1 29 -100 0 
1 -51 -1 0 
1 59 48 0 
1 68 -40 0 
1 -60 100 0 
1 -92 -43 0 
1 -81 -19 0 
1 117 -82 0 
1 -99 -67 0 
1 -51 77 0 
1 -21 -17 0 
1 -44 -18 0 
1 41 -4 0 
1 -2 -46 0 
1 25 9 0 
1 24 69 0 
1 57 51 0 
1 -86 25 0 
1 42 -87 0 
1 111 -60 0 
1 -48 110 0 
1 -105 51 0 
1 66 28 0 
1 -42 -32 0 
1 104 32 0 
1 117 -114 0 
1 103 -33 0 
1 -99 -2 0 
1 19 31 0 
1 -80 17 0 
1 -12 7 0 
1 -59 -84 0 
1 -119 64 0 
1 -55 -99 0 
1 -77 -46 0 
1 -43 -84 0 
1 74 -82 0 
1 101 -53 0 
1 21 74 0 
1 38 44 0 
1 11 1 0 
1 -38 -61 0 
1 -65 -92 0 
1 -84 72 0 
1 103 -17 0 
1 16 92 0 
1 43 -108 0 
1 20 -7 0 
1 112 85 0 
1 40 -6 0 
1 115 -89 0 
1 -10 -90 0 
